# Solution for model GNN
# Objective value = 1.8989044689633141e+00
A[0,0] 1
A[0,1] 1
A[0,2] 1
A[0,3] 1
A[1,0] 1
A[1,1] 1
A[1,2] 1
A[1,3] 1
A[2,0] 1
A[2,1] 1
A[2,2] 1
A[2,3] 1
A[3,0] 1
A[3,1] 1
A[3,2] 1
A[3,3] 1
x[0,0] 1
x[0,1] 0
x[0,2] 0
x[0,3] 0
x[0,4] 0
x[0,5] 0
x[0,6] 0
x[0,7] 1
x[0,8] 0
x[0,9] 0
x[0,10] 1
x[0,11] 0
x[0,12] 0
x[0,13] 0
x[1,0] 1
x[1,1] 0
x[1,2] 0
x[1,3] 0
x[1,4] 0
x[1,5] 0
x[1,6] 0
x[1,7] 1
x[1,8] 0
x[1,9] 0
x[1,10] 1
x[1,11] 0
x[1,12] 0
x[1,13] 0
x[2,0] 1
x[2,1] 0
x[2,2] 0
x[2,3] 0
x[2,4] 0
x[2,5] 0
x[2,6] 0
x[2,7] 1
x[2,8] 0
x[2,9] 0
x[2,10] 1
x[2,11] 0
x[2,12] 0
x[2,13] 0
x[3,0] 1
x[3,1] 0
x[3,2] 0
x[3,3] 0
x[3,4] 0
x[3,5] 0
x[3,6] 0
x[3,7] 1
x[3,8] 0
x[3,9] 0
x[3,10] 1
x[3,11] 0
x[3,12] 0
x[3,13] 0
c[0,0,0] 0
c[0,0,1] 0
c[0,0,2] 0
c[0,0,3] 0
c[0,0,4] 0
c[0,0,5] 0
c[0,0,6] 0
c[0,0,7] 0
c[0,0,8] 0
c[0,0,9] 0
c[0,0,10] 0
c[0,0,11] 0
c[0,0,12] 0
c[0,0,13] 0
c[0,0,14] 0
c[0,0,15] 0
c[0,0,16] 0
c[0,0,17] 0
c[0,0,18] 0
c[0,0,19] 0
c[0,0,20] 0
c[0,0,21] 0
c[0,0,22] 0
c[0,0,23] 0
c[0,0,24] 1
c[0,1,0] 0
c[0,1,1] 0
c[0,1,2] 0
c[0,1,3] 0
c[0,1,4] 0
c[0,1,5] 0
c[0,1,6] 0
c[0,1,7] 0
c[0,1,8] 0
c[0,1,9] 0
c[0,1,10] 0
c[0,1,11] 0
c[0,1,12] 0
c[0,1,13] 0
c[0,1,14] 0
c[0,1,15] 0
c[0,1,16] 0
c[0,1,17] 0
c[0,1,18] 0
c[0,1,19] 0
c[0,1,20] 0
c[0,1,21] 0
c[0,1,22] 0
c[0,1,23] 0
c[0,1,24] 1
c[0,2,0] 0
c[0,2,1] 0
c[0,2,2] 0
c[0,2,3] 0
c[0,2,4] 0
c[0,2,5] 0
c[0,2,6] 0
c[0,2,7] 0
c[0,2,8] 0
c[0,2,9] 0
c[0,2,10] 0
c[0,2,11] 0
c[0,2,12] 0
c[0,2,13] 0
c[0,2,14] 0
c[0,2,15] 0
c[0,2,16] 0
c[0,2,17] 0
c[0,2,18] 0
c[0,2,19] 0
c[0,2,20] 0
c[0,2,21] 0
c[0,2,22] 0
c[0,2,23] 0
c[0,2,24] 1
c[0,3,0] 0
c[0,3,1] 0
c[0,3,2] 0
c[0,3,3] 0
c[0,3,4] 0
c[0,3,5] 0
c[0,3,6] 0
c[0,3,7] 0
c[0,3,8] 0
c[0,3,9] 0
c[0,3,10] 0
c[0,3,11] 0
c[0,3,12] 0
c[0,3,13] 0
c[0,3,14] 0
c[0,3,15] 0
c[0,3,16] 0
c[0,3,17] 0
c[0,3,18] 0
c[0,3,19] 0
c[0,3,20] 0
c[0,3,21] 0
c[0,3,22] 0
c[0,3,23] 0
c[0,3,24] 1
c[1,0,0] 0
c[1,0,1] 0
c[1,0,2] 0
c[1,0,3] 0
c[1,0,4] 0
c[1,0,5] 0
c[1,0,6] 0
c[1,0,7] 0
c[1,0,8] 0
c[1,0,9] 0
c[1,0,10] 0
c[1,0,11] 0
c[1,0,12] 0
c[1,0,13] 0
c[1,0,14] 0
c[1,0,15] 0
c[1,0,16] 0
c[1,0,17] 0
c[1,0,18] 0
c[1,0,19] 0
c[1,0,20] 0
c[1,0,21] 0
c[1,0,22] 0
c[1,0,23] 0
c[1,0,24] 1
c[1,1,0] 0
c[1,1,1] 0
c[1,1,2] 0
c[1,1,3] 0
c[1,1,4] 0
c[1,1,5] 0
c[1,1,6] 0
c[1,1,7] 0
c[1,1,8] 0
c[1,1,9] 0
c[1,1,10] 0
c[1,1,11] 0
c[1,1,12] 0
c[1,1,13] 0
c[1,1,14] 0
c[1,1,15] 0
c[1,1,16] 0
c[1,1,17] 0
c[1,1,18] 0
c[1,1,19] 0
c[1,1,20] 0
c[1,1,21] 0
c[1,1,22] 0
c[1,1,23] 0
c[1,1,24] 1
c[1,2,0] 0
c[1,2,1] 0
c[1,2,2] 0
c[1,2,3] 0
c[1,2,4] 0
c[1,2,5] 0
c[1,2,6] 0
c[1,2,7] 0
c[1,2,8] 0
c[1,2,9] 0
c[1,2,10] 0
c[1,2,11] 0
c[1,2,12] 0
c[1,2,13] 0
c[1,2,14] 0
c[1,2,15] 0
c[1,2,16] 0
c[1,2,17] 0
c[1,2,18] 0
c[1,2,19] 0
c[1,2,20] 0
c[1,2,21] 0
c[1,2,22] 0
c[1,2,23] 0
c[1,2,24] 1
c[1,3,0] 0
c[1,3,1] 0
c[1,3,2] 0
c[1,3,3] 0
c[1,3,4] 0
c[1,3,5] 0
c[1,3,6] 0
c[1,3,7] 0
c[1,3,8] 0
c[1,3,9] 0
c[1,3,10] 0
c[1,3,11] 0
c[1,3,12] 0
c[1,3,13] 0
c[1,3,14] 0
c[1,3,15] 0
c[1,3,16] 0
c[1,3,17] 0
c[1,3,18] 0
c[1,3,19] 0
c[1,3,20] 0
c[1,3,21] 0
c[1,3,22] 0
c[1,3,23] 0
c[1,3,24] 1
c[2,0,0] 0
c[2,0,1] 0
c[2,0,2] 0
c[2,0,3] 0
c[2,0,4] 0
c[2,0,5] 0
c[2,0,6] 0
c[2,0,7] 0
c[2,0,8] 0
c[2,0,9] 0
c[2,0,10] 0
c[2,0,11] 0
c[2,0,12] 0
c[2,0,13] 0
c[2,0,14] 0
c[2,0,15] 0
c[2,0,16] 0
c[2,0,17] 0
c[2,0,18] 0
c[2,0,19] 0
c[2,0,20] 0
c[2,0,21] 0
c[2,0,22] 0
c[2,0,23] 0
c[2,0,24] 1
c[2,1,0] 0
c[2,1,1] 0
c[2,1,2] 0
c[2,1,3] 0
c[2,1,4] 0
c[2,1,5] 0
c[2,1,6] 0
c[2,1,7] 0
c[2,1,8] 0
c[2,1,9] 0
c[2,1,10] 0
c[2,1,11] 0
c[2,1,12] 0
c[2,1,13] 0
c[2,1,14] 0
c[2,1,15] 0
c[2,1,16] 0
c[2,1,17] 0
c[2,1,18] 0
c[2,1,19] 0
c[2,1,20] 0
c[2,1,21] 0
c[2,1,22] 0
c[2,1,23] 0
c[2,1,24] 1
c[2,2,0] 0
c[2,2,1] 0
c[2,2,2] 0
c[2,2,3] 0
c[2,2,4] 0
c[2,2,5] 0
c[2,2,6] 0
c[2,2,7] 0
c[2,2,8] 0
c[2,2,9] 0
c[2,2,10] 0
c[2,2,11] 0
c[2,2,12] 0
c[2,2,13] 0
c[2,2,14] 0
c[2,2,15] 0
c[2,2,16] 0
c[2,2,17] 0
c[2,2,18] 0
c[2,2,19] 0
c[2,2,20] 0
c[2,2,21] 0
c[2,2,22] 0
c[2,2,23] 0
c[2,2,24] 1
c[2,3,0] 0
c[2,3,1] 0
c[2,3,2] 0
c[2,3,3] 0
c[2,3,4] 0
c[2,3,5] 0
c[2,3,6] 0
c[2,3,7] 0
c[2,3,8] 0
c[2,3,9] 0
c[2,3,10] 0
c[2,3,11] 0
c[2,3,12] 0
c[2,3,13] 0
c[2,3,14] 0
c[2,3,15] 0
c[2,3,16] 0
c[2,3,17] 0
c[2,3,18] 0
c[2,3,19] 0
c[2,3,20] 0
c[2,3,21] 0
c[2,3,22] 0
c[2,3,23] 0
c[2,3,24] 1
c[3,0,0] 0
c[3,0,1] 0
c[3,0,2] 0
c[3,0,3] 0
c[3,0,4] 0
c[3,0,5] 0
c[3,0,6] 0
c[3,0,7] 0
c[3,0,8] 0
c[3,0,9] 0
c[3,0,10] 0
c[3,0,11] 0
c[3,0,12] 0
c[3,0,13] 0
c[3,0,14] 0
c[3,0,15] 0
c[3,0,16] 0
c[3,0,17] 0
c[3,0,18] 0
c[3,0,19] 0
c[3,0,20] 0
c[3,0,21] 0
c[3,0,22] 0
c[3,0,23] 0
c[3,0,24] 1
c[3,1,0] 0
c[3,1,1] 0
c[3,1,2] 0
c[3,1,3] 0
c[3,1,4] 0
c[3,1,5] 0
c[3,1,6] 0
c[3,1,7] 0
c[3,1,8] 0
c[3,1,9] 0
c[3,1,10] 0
c[3,1,11] 0
c[3,1,12] 0
c[3,1,13] 0
c[3,1,14] 0
c[3,1,15] 0
c[3,1,16] 0
c[3,1,17] 0
c[3,1,18] 0
c[3,1,19] 0
c[3,1,20] 0
c[3,1,21] 0
c[3,1,22] 0
c[3,1,23] 0
c[3,1,24] 1
c[3,2,0] 0
c[3,2,1] 0
c[3,2,2] 0
c[3,2,3] 0
c[3,2,4] 0
c[3,2,5] 0
c[3,2,6] 0
c[3,2,7] 0
c[3,2,8] 0
c[3,2,9] 0
c[3,2,10] 0
c[3,2,11] 0
c[3,2,12] 0
c[3,2,13] 0
c[3,2,14] 0
c[3,2,15] 0
c[3,2,16] 0
c[3,2,17] 0
c[3,2,18] 0
c[3,2,19] 0
c[3,2,20] 0
c[3,2,21] 0
c[3,2,22] 0
c[3,2,23] 0
c[3,2,24] 1
c[3,3,0] 0
c[3,3,1] 0
c[3,3,2] 0
c[3,3,3] 0
c[3,3,4] 0
c[3,3,5] 0
c[3,3,6] 0
c[3,3,7] 0
c[3,3,8] 0
c[3,3,9] 0
c[3,3,10] 0
c[3,3,11] 0
c[3,3,12] 0
c[3,3,13] 0
c[3,3,14] 0
c[3,3,15] 0
c[3,3,16] 0
c[3,3,17] 0
c[3,3,18] 0
c[3,3,19] 0
c[3,3,20] 0
c[3,3,21] 0
c[3,3,22] 0
c[3,3,23] 0
c[3,3,24] 1
b[0,0,0] 0
b[0,0,1] 0
b[0,0,2] 0
b[0,0,3] 0
b[0,0,4] 0
b[0,0,5] 0
b[0,0,6] 0
b[0,0,7] 0
b[0,0,8] 0
b[0,0,9] 0
b[0,0,10] 0
b[0,0,11] 0
b[0,0,12] 0
b[0,0,13] 0
b[0,1,0] 0
b[0,1,1] 0
b[0,1,2] 0
b[0,1,3] 0
b[0,1,4] 0
b[0,1,5] 0
b[0,1,6] 0
b[0,1,7] 0
b[0,1,8] 0
b[0,1,9] 0
b[0,1,10] 0
b[0,1,11] 0
b[0,1,12] 0
b[0,1,13] 0
b[0,2,0] 0
b[0,2,1] 0
b[0,2,2] 0
b[0,2,3] 0
b[0,2,4] 0
b[0,2,5] 0
b[0,2,6] 0
b[0,2,7] 0
b[0,2,8] 0
b[0,2,9] 0
b[0,2,10] 0
b[0,2,11] 0
b[0,2,12] 0
b[0,2,13] 0
b[0,3,0] 0
b[0,3,1] 0
b[0,3,2] 0
b[0,3,3] 0
b[0,3,4] 0
b[0,3,5] 0
b[0,3,6] 0
b[0,3,7] 0
b[0,3,8] 0
b[0,3,9] 0
b[0,3,10] 0
b[0,3,11] 0
b[0,3,12] 0
b[0,3,13] 0
b[1,0,0] 0
b[1,0,1] 0
b[1,0,2] 0
b[1,0,3] 0
b[1,0,4] 0
b[1,0,5] 0
b[1,0,6] 0
b[1,0,7] 0
b[1,0,8] 0
b[1,0,9] 0
b[1,0,10] 0
b[1,0,11] 0
b[1,0,12] 0
b[1,0,13] 0
b[1,1,0] 0
b[1,1,1] 0
b[1,1,2] 0
b[1,1,3] 0
b[1,1,4] 0
b[1,1,5] 0
b[1,1,6] 0
b[1,1,7] 0
b[1,1,8] 0
b[1,1,9] 0
b[1,1,10] 0
b[1,1,11] 0
b[1,1,12] 0
b[1,1,13] 0
b[1,2,0] 0
b[1,2,1] 0
b[1,2,2] 0
b[1,2,3] 0
b[1,2,4] 0
b[1,2,5] 0
b[1,2,6] 0
b[1,2,7] 0
b[1,2,8] 0
b[1,2,9] 0
b[1,2,10] 0
b[1,2,11] 0
b[1,2,12] 0
b[1,2,13] 0
b[1,3,0] 0
b[1,3,1] 0
b[1,3,2] 0
b[1,3,3] 0
b[1,3,4] 0
b[1,3,5] 0
b[1,3,6] 0
b[1,3,7] 0
b[1,3,8] 0
b[1,3,9] 0
b[1,3,10] 0
b[1,3,11] 0
b[1,3,12] 0
b[1,3,13] 0
b[2,0,0] 0
b[2,0,1] 0
b[2,0,2] 0
b[2,0,3] 0
b[2,0,4] 0
b[2,0,5] 0
b[2,0,6] 0
b[2,0,7] 0
b[2,0,8] 0
b[2,0,9] 0
b[2,0,10] 0
b[2,0,11] 0
b[2,0,12] 0
b[2,0,13] 0
b[2,1,0] 0
b[2,1,1] 0
b[2,1,2] 0
b[2,1,3] 0
b[2,1,4] 0
b[2,1,5] 0
b[2,1,6] 0
b[2,1,7] 0
b[2,1,8] 0
b[2,1,9] 0
b[2,1,10] 0
b[2,1,11] 0
b[2,1,12] 0
b[2,1,13] 0
b[2,2,0] 0
b[2,2,1] 0
b[2,2,2] 0
b[2,2,3] 0
b[2,2,4] 0
b[2,2,5] 0
b[2,2,6] 0
b[2,2,7] 0
b[2,2,8] 0
b[2,2,9] 0
b[2,2,10] 0
b[2,2,11] 0
b[2,2,12] 0
b[2,2,13] 0
b[2,3,0] 0
b[2,3,1] 0
b[2,3,2] 0
b[2,3,3] 0
b[2,3,4] 0
b[2,3,5] 0
b[2,3,6] 0
b[2,3,7] 0
b[2,3,8] 0
b[2,3,9] 0
b[2,3,10] 0
b[2,3,11] 0
b[2,3,12] 0
b[2,3,13] 0
b[3,0,0] 0
b[3,0,1] 0
b[3,0,2] 0
b[3,0,3] 0
b[3,0,4] 0
b[3,0,5] 0
b[3,0,6] 0
b[3,0,7] 0
b[3,0,8] 0
b[3,0,9] 0
b[3,0,10] 0
b[3,0,11] 0
b[3,0,12] 0
b[3,0,13] 0
b[3,1,0] 0
b[3,1,1] 0
b[3,1,2] 0
b[3,1,3] 0
b[3,1,4] 0
b[3,1,5] 0
b[3,1,6] 0
b[3,1,7] 0
b[3,1,8] 0
b[3,1,9] 0
b[3,1,10] 0
b[3,1,11] 0
b[3,1,12] 0
b[3,1,13] 0
b[3,2,0] 0
b[3,2,1] 0
b[3,2,2] 0
b[3,2,3] 0
b[3,2,4] 0
b[3,2,5] 0
b[3,2,6] 0
b[3,2,7] 0
b[3,2,8] 0
b[3,2,9] 0
b[3,2,10] 0
b[3,2,11] 0
b[3,2,12] 0
b[3,2,13] 0
b[3,3,0] 0
b[3,3,1] 0
b[3,3,2] 0
b[3,3,3] 0
b[3,3,4] 0
b[3,3,5] 0
b[3,3,6] 0
b[3,3,7] 0
b[3,3,8] 0
b[3,3,9] 0
b[3,3,10] 0
b[3,3,11] 0
b[3,3,12] 0
b[3,3,13] 0
sp[0,0] 2.5000000000000011e-01
sp[0,1] 0.25
sp[0,2] 0.25
sp[0,3] 0.25
sp[1,0] 0.25
sp[1,1] 2.5000000000000011e-01
sp[1,2] 0.25
sp[1,3] 0.25
sp[2,0] 0.25
sp[2,1] 0.25
sp[2,2] 0.25
sp[2,3] 2.5000000000000350e-01
sp[3,0] 0.25
sp[3,1] 0.25
sp[3,2] 2.5000000000000416e-01
sp[3,3] 0.25
d_plus[0] 4
d_plus[1] 4
d_plus[2] 4
d_plus[3] 4
p[0,0] 24
p[0,1] 24
p[0,2] 24
p[0,3] 24
p[1,0] 24
p[1,1] 24
p[1,2] 24
p[1,3] 24
p[2,0] 24
p[2,1] 24
p[2,2] 24
p[2,3] 24
p[3,0] 24
p[3,1] 24
p[3,2] 24
p[3,3] 24
t[0,0] 2.5000000000000011e-01
t[0,1] 0.25
t[0,2] 2.5000000000000366e-01
t[0,3] 2.5000000000000389e-01
t[1,0] 0.25
t[1,1] 2.5000000000000011e-01
t[1,2] 2.5000000000000366e-01
t[1,3] 2.5000000000000389e-01
t[2,0] 2.5000000000000366e-01
t[2,1] 2.5000000000000366e-01
t[2,2] 0.25
t[2,3] 2.5000000000000366e-01
t[3,0] 2.5000000000000389e-01
t[3,1] 2.5000000000000389e-01
t[3,2] 2.5000000000000422e-01
t[3,3] 0.25
h_prime[0,0] 2.5229255482550017e-01
h_prime[0,1] 8.8376446068283765e-01
h_prime[0,2] 5.6160795688625176e-01
h_prime[0,3] 4.1103753447528035e-01
h_prime[0,4] 0
h_prime[0,5] 0
h_prime[0,6] 0
h_prime[0,7] 7.3808294534689634e-01
h_prime[0,8] 7.2979655861851489e-01
h_prime[0,9] 5.6686103343555061e-03
h_prime[0,10] 6.6769409924692935e-02
h_prime[0,11] 6.2573838233952273e-01
h_prime[0,12] 0
h_prime[0,13] 0
h_prime[0,14] 2.0585633814340745e-01
h_prime[0,15] 1.8914774060187822e-02
h_prime[0,16] 0
h_prime[0,17] 6.6132088005539758e-01
h_prime[0,18] 2.3555725812856476e-02
h_prime[0,19] 2.5738466531031823e-01
h_prime[0,20] 0
h_prime[0,21] 0
h_prime[0,22] 0
h_prime[0,23] 0
h_prime[0,24] 0
h_prime[0,25] 1.7546117305750597e-01
h_prime[0,26] 1.6328081488604651e-01
h_prime[0,27] 3.0342526733872210e-01
h_prime[0,28] 4.6527095139022512e-01
h_prime[0,29] 1.7742702644314634e-01
h_prime[0,30] 6.3768477737899887e-01
h_prime[0,31] 4.2271741479641362e-01
h_prime[1,0] 2.5229255482548330e-01
h_prime[1,1] 8.8376446068282388e-01
h_prime[1,2] 5.6160795688624643e-01
h_prime[1,3] 4.1103753447527414e-01
h_prime[1,4] 0
h_prime[1,5] 0
h_prime[1,6] 0
h_prime[1,7] 7.3808294534690522e-01
h_prime[1,8] 7.2979655861851311e-01
h_prime[1,9] 5.6686103343457361e-03
h_prime[1,10] 6.6769409924678724e-02
h_prime[1,11] 6.2573838233952184e-01
h_prime[1,12] 0
h_prime[1,13] 0
h_prime[1,14] 2.0585633814342166e-01
h_prime[1,15] 1.8914774060173611e-02
h_prime[1,16] 0
h_prime[1,17] 6.6132088005539580e-01
h_prime[1,18] 2.3555725812847150e-02
h_prime[1,19] 2.5738466531029780e-01
h_prime[1,20] 0
h_prime[1,21] 0
h_prime[1,22] 0
h_prime[1,23] 0
h_prime[1,24] 0
h_prime[1,25] 1.7546117305748776e-01
h_prime[1,26] 1.6328081488604251e-01
h_prime[1,27] 3.0342526733871944e-01
h_prime[1,28] 4.6527095139021046e-01
h_prime[1,29] 1.7742702644314190e-01
h_prime[1,30] 6.3768477737899176e-01
h_prime[1,31] 4.2271741479642294e-01
h_prime[2,0] 2.5229255482552659e-01
h_prime[2,1] 0.883764460682857
h_prime[2,2] 0.561607956886275
h_prime[2,3] 4.1103753447529545e-01
h_prime[2,4] 0
h_prime[2,5] 0
h_prime[2,6] 0
h_prime[2,7] 7.3808294534681806e-01
h_prime[2,8] 7.2979655861852288e-01
h_prime[2,9] 5.6686103343728256e-03
h_prime[2,10] 0.0667694099247716
h_prime[2,11] 6.2573838233946288e-01
h_prime[2,12] 0
h_prime[2,13] 0
h_prime[2,14] 2.0585633814332502e-01
h_prime[2,15] 1.8914774060212691e-02
h_prime[2,16] 0
h_prime[2,17] 6.6132088005541478e-01
h_prime[2,18] 2.3555725812883122e-02
h_prime[2,19] 2.5738466531035820e-01
h_prime[2,20] 0
h_prime[2,21] 0
h_prime[2,22] 0
h_prime[2,23] 0
h_prime[2,24] 0
h_prime[2,25] 1.7546117305753528e-01
h_prime[2,26] 1.6328081488606827e-01
h_prime[2,27] 3.0342526733873865e-01
h_prime[2,28] 4.6527095139024555e-01
h_prime[2,29] 1.7742702644320402e-01
h_prime[2,30] 6.3768477737902451e-01
h_prime[2,31] 4.2271741479633906e-01
h_prime[3,0] 2.5229255482552748e-01
h_prime[3,1] 8.8376446068285719e-01
h_prime[3,2] 5.6160795688632470e-01
h_prime[3,3] 4.1103753447529678e-01
h_prime[3,4] 0
h_prime[3,5] 0
h_prime[3,6] 0
h_prime[3,7] 7.3808294534682051e-01
h_prime[3,8] 7.2979655861852288e-01
h_prime[3,9] 5.6686103343723815e-03
h_prime[3,10] 6.6769409924766931e-02
h_prime[3,11] 6.2573838233950541e-01
h_prime[3,12] 0
h_prime[3,13] 0
h_prime[3,14] 2.0585633814338095e-01
h_prime[3,15] 0.0189147740602138
h_prime[3,16] 0
h_prime[3,17] 6.6132088005545864e-01
h_prime[3,18] 2.3555725812882677e-02
h_prime[3,19] 2.5738466531035620e-01
h_prime[3,20] 0
h_prime[3,21] 0
h_prime[3,22] 0
h_prime[3,23] 0
h_prime[3,24] 0
h_prime[3,25] 1.7546117305753572e-01
h_prime[3,26] 1.6328081488612173e-01
h_prime[3,27] 3.0342526733873831e-01
h_prime[3,28] 4.6527095139029717e-01
h_prime[3,29] 1.7742702644315855e-01
h_prime[3,30] 6.3768477737906037e-01
h_prime[3,31] 4.2271741479633951e-01
s_0_0_GCN 0
z_0_0_GCN 1
s_0_1_GCN 0
z_0_1_GCN 1
s_0_2_GCN 0
z_0_2_GCN 1
s_0_3_GCN 0
z_0_3_GCN 1
s_0_4_GCN 2.4095827713587870e-02
z_0_4_GCN 0
s_0_5_GCN 5.4726786911430514e-02
z_0_5_GCN 0
s_0_6_GCN 2.0559313520785150e-01
z_0_6_GCN 0
s_0_7_GCN 0
z_0_7_GCN 1
s_0_8_GCN 0
z_0_8_GCN 1
s_0_9_GCN 0
z_0_9_GCN 1
s_0_10_GCN 0
z_0_10_GCN 1
s_0_11_GCN 0
z_0_11_GCN 1
s_0_12_GCN 2.1263800561398094e-02
z_0_12_GCN 0
s_0_13_GCN 0.164954511448681
z_0_13_GCN 0
s_0_14_GCN 0
z_0_14_GCN 1
s_0_15_GCN 0
z_0_15_GCN 1
s_0_16_GCN 2.0203471370035642e-01
z_0_16_GCN 0
s_0_17_GCN 0
z_0_17_GCN 1
s_0_18_GCN 0
z_0_18_GCN 1
s_0_19_GCN 0
z_0_19_GCN 1
s_0_20_GCN 7.7616091072555515e-01
z_0_20_GCN 0
s_0_21_GCN 0.067768767476033
z_0_21_GCN 0
s_0_22_GCN 3.6707946471866582e-01
z_0_22_GCN 0
s_0_23_GCN 2.4490813165906597e-01
z_0_23_GCN 0
s_0_24_GCN 4.5589824393387612e-01
z_0_24_GCN 0
s_0_25_GCN 0
z_0_25_GCN 1
s_0_26_GCN 0
z_0_26_GCN 1
s_0_27_GCN 0
z_0_27_GCN 1
s_0_28_GCN 0
z_0_28_GCN 1
s_0_29_GCN 0
z_0_29_GCN 1
s_0_30_GCN 0
z_0_30_GCN 1
s_0_31_GCN 0
z_0_31_GCN 1
s_1_0_GCN 0
z_1_0_GCN 1
s_1_1_GCN 0
z_1_1_GCN 1
s_1_2_GCN 0
z_1_2_GCN 1
s_1_3_GCN 0
z_1_3_GCN 1
s_1_4_GCN 2.4095827713586981e-02
z_1_4_GCN 0
s_1_5_GCN 5.4726786911415415e-02
z_1_5_GCN 0
s_1_6_GCN 2.0559313520784350e-01
z_1_6_GCN 0
s_1_7_GCN 0
z_1_7_GCN 1
s_1_8_GCN 0
z_1_8_GCN 1
s_1_9_GCN 0
z_1_9_GCN 1
s_1_10_GCN 0
z_1_10_GCN 1
s_1_11_GCN 0
z_1_11_GCN 1
s_1_12_GCN 2.1263800561390767e-02
z_1_12_GCN 0
s_1_13_GCN 1.6495451144866680e-01
z_1_13_GCN 0
s_1_14_GCN 0
z_1_14_GCN 1
s_1_15_GCN 0
z_1_15_GCN 1
s_1_16_GCN 2.0203471370033421e-01
z_1_16_GCN 0
s_1_17_GCN 0
z_1_17_GCN 1
s_1_18_GCN 0
z_1_18_GCN 1
s_1_19_GCN 0
z_1_19_GCN 1
s_1_20_GCN 7.7616091072554982e-01
z_1_20_GCN 0
s_1_21_GCN 6.7768767476025449e-02
z_1_21_GCN 0
s_1_22_GCN 3.6707946471866137e-01
z_1_22_GCN 0
s_1_23_GCN 2.4490813165907308e-01
z_1_23_GCN 0
s_1_24_GCN 4.5589824393386547e-01
z_1_24_GCN 0
s_1_25_GCN 0
z_1_25_GCN 1
s_1_26_GCN 0
z_1_26_GCN 1
s_1_27_GCN 0
z_1_27_GCN 1
s_1_28_GCN 0
z_1_28_GCN 1
s_1_29_GCN 0
z_1_29_GCN 1
s_1_30_GCN 0
z_1_30_GCN 1
s_1_31_GCN 0
z_1_31_GCN 1
s_2_0_GCN 0
z_2_0_GCN 1
s_2_1_GCN 0
z_2_1_GCN 1
s_2_2_GCN 0
z_2_2_GCN 1
s_2_3_GCN 0
z_2_3_GCN 1
s_2_4_GCN 2.4095827713594087e-02
z_2_4_GCN 0
s_2_5_GCN 5.4726786911516681e-02
z_2_5_GCN 0
s_2_6_GCN 2.0559313520791273e-01
z_2_6_GCN 0
s_2_7_GCN 0
z_2_7_GCN 1
s_2_8_GCN 0
z_2_8_GCN 1
s_2_9_GCN 0
z_2_9_GCN 1
s_2_10_GCN 0
z_2_10_GCN 1
s_2_11_GCN 0
z_2_11_GCN 1
s_2_12_GCN 2.1263800561412305e-02
z_2_12_GCN 0
s_2_13_GCN 1.6495451144871542e-01
z_2_13_GCN 0
s_2_14_GCN 0
z_2_14_GCN 1
s_2_15_GCN 0
z_2_15_GCN 1
s_2_16_GCN 2.0203471370043630e-01
z_2_16_GCN 0
s_2_17_GCN 0
z_2_17_GCN 1
s_2_18_GCN 0
z_2_18_GCN 1
s_2_19_GCN 0
z_2_19_GCN 1
s_2_20_GCN 7.7616091072558069e-01
z_2_20_GCN 0
s_2_21_GCN 6.7768767476056091e-02
z_2_21_GCN 0
s_2_22_GCN 0.367079464718683
z_2_22_GCN 0
s_2_23_GCN 2.4490813165904979e-01
z_2_23_GCN 0
s_2_24_GCN 4.5589824393389833e-01
z_2_24_GCN 0
s_2_25_GCN 0
z_2_25_GCN 1
s_2_26_GCN 0
z_2_26_GCN 1
s_2_27_GCN 0
z_2_27_GCN 1
s_2_28_GCN 0
z_2_28_GCN 1
s_2_29_GCN 0
z_2_29_GCN 1
s_2_30_GCN 0
z_2_30_GCN 1
s_2_31_GCN 0
z_2_31_GCN 1
s_3_0_GCN 0
z_3_0_GCN 1
s_3_1_GCN 0
z_3_1_GCN 1
s_3_2_GCN 0
z_3_2_GCN 1
s_3_3_GCN 0
z_3_3_GCN 1
s_3_4_GCN 2.4095827713594531e-02
z_3_4_GCN 0
s_3_5_GCN 5.4726786911514905e-02
z_3_5_GCN 0
s_3_6_GCN 2.0559313520787387e-01
z_3_6_GCN 0
s_3_7_GCN 0
z_3_7_GCN 1
s_3_8_GCN 0
z_3_8_GCN 1
s_3_9_GCN 0
z_3_9_GCN 1
s_3_10_GCN 0
z_3_10_GCN 1
s_3_11_GCN 0
z_3_11_GCN 1
s_3_12_GCN 2.1263800561412416e-02
z_3_12_GCN 0
s_3_13_GCN 0.164954511448771
z_3_13_GCN 0
s_3_14_GCN 0
z_3_14_GCN 1
s_3_15_GCN 0
z_3_15_GCN 1
s_3_16_GCN 2.0203471370039333e-01
z_3_16_GCN 0
s_3_17_GCN 0
z_3_17_GCN 1
s_3_18_GCN 0
z_3_18_GCN 1
s_3_19_GCN 0
z_3_19_GCN 1
s_3_20_GCN 7.7616091072562665e-01
z_3_20_GCN 0
s_3_21_GCN 6.7768767476054093e-02
z_3_21_GCN 0
s_3_22_GCN 3.6707946471868091e-01
z_3_22_GCN 0
s_3_23_GCN 2.4490813165901909e-01
z_3_23_GCN 0
s_3_24_GCN 4.5589824393394696e-01
z_3_24_GCN 0
s_3_25_GCN 0
z_3_25_GCN 1
s_3_26_GCN 0
z_3_26_GCN 1
s_3_27_GCN 0
z_3_27_GCN 1
s_3_28_GCN 0
z_3_28_GCN 1
s_3_29_GCN 0
z_3_29_GCN 1
s_3_30_GCN 0
z_3_30_GCN 1
s_3_31_GCN 0
z_3_31_GCN 1
h[0] 1.0091702193019856e+00
h[1] 3.5350578427312627e+00
h[2] 2.2464318275451460e+00
h[3] 1.6441501379010246e+00
h[4] 0
h[5] 0
h[6] 0
h[7] 2.9523317813873575e+00
h[8] 2.9191862344739903e+00
h[9] 2.2674441337431336e-02
h[10] 2.6707763969892534e-01
h[11] 2.5029535293580580e+00
h[12] 0
h[13] 0
h[14] 0.823425352573564
h[15] 7.5659096240778823e-02
h[16] 0
h[17] 2.6452835202217484e+00
h[18] 9.4222903251459655e-02
h[19] 1.0295386612413235e+00
h[20] 0
h[21] 0
h[22] 0
h[23] 0
h[24] 0
h[25] 7.0184469223001145e-01
h[26] 6.5312325954422157e-01
h[27] 1.2137010693549120e+00
h[28] 1.8610838055610111e+00
h[29] 7.0970810577263377e-01
h[30] 2.5507391095161553e+00
h[31] 1.6908696591854526e+00
y 1.8989044689633141e+00
x_1_0_ANN 7.1196543664433665e-01
s_1_0_ANN 0
z_1_0_ANN 1
x_1_1_ANN 0
s_1_1_ANN 3.2332514773691567e-01
z_1_1_ANN 0
x_1_2_ANN 0
s_1_2_ANN 1.2138835971486930e+00
z_1_2_ANN 0
x_1_3_ANN 4.4420144807418307e+00
s_1_3_ANN 0
z_1_3_ANN 1
x_1_4_ANN 0
s_1_4_ANN 1.4485086787909380e+00
z_1_4_ANN 0
x_1_5_ANN 0
s_1_5_ANN 1.0138687805740594e+00
z_1_5_ANN 0
x_1_6_ANN 2.0829865113455831e-01
s_1_6_ANN 0
z_1_6_ANN 1
x_1_7_ANN 2.6958154303416242e+00
s_1_7_ANN 0
z_1_7_ANN 1
x_1_8_ANN 2.5905411095663893e+00
s_1_8_ANN 0
z_1_8_ANN 1
x_1_9_ANN 0
s_1_9_ANN 1.5340019666085318e+00
z_1_9_ANN 0
x_1_10_ANN 0
s_1_10_ANN 2.2620037177825747e-01
z_1_10_ANN 0
x_1_11_ANN 0
s_1_11_ANN 0.959225224602623
z_1_11_ANN 0
x_1_12_ANN 0
s_1_12_ANN 2.2656607282298147e-01
z_1_12_ANN 0
x_1_13_ANN 0
s_1_13_ANN 1.1737448789931395e+00
z_1_13_ANN 0
x_1_14_ANN 0
s_1_14_ANN 0.218801736998957
z_1_14_ANN 0
x_1_15_ANN 0
s_1_15_ANN 2.9076077564208436e-01
z_1_15_ANN 0
